NAME : eil101_solution.tour
TYPE : TOUR
DIMENSION : 102
COMMENT : Tour length: 955.3385
COMMENT : Time elapsed: 168.01 [s]
TOUR_SECTION
0
11
3
55
24
54
23
28
67
71
21
74
73
20
25
9
10
18
46
45
35
48
63
19
65
64
70
34
33
77
32
80
8
50
61
62
89
31
29
69
51
5
58
91
94
12
57
39
72
40
22
66
38
53
79
75
49
27
82
7
44
16
83
59
4
60
85
43
90
99
96
41
42
14
86
93
88
17
81
47
6
87
30
78
2
76
1
56
13
37
15
84
36
97
92
98
95
52
100
26
68
0
-1
EOF
